25231.83,51.77,57.01
25952.37,50.33,55.43
25411.57,51.4,56.61
25331.51,51.56,56.78
25196.32,51.84,57.09
28385.22,46.02,50.68
28266.93,46.21,50.89
23369.31,55.89,61.55
25206.09,51.82,57.07
26588.06,49.13,54.1
24506.67,53.3,58.7
25330.25,51.57,56.79
27558.92,47.4,52.19
25001.39,52.24,57.53
23203.53,56.29,61.99
24441.11,53.44,58.85
21454.24,60.88,67.05
23423.08,55.76,61.41
26716.04,48.89,53.84
26926.17,48.51,53.42
